
Gurobi 10.0.0 (win64, C++) logging started Wed Nov 29 08:03:30 2023

Set parameter TokenServer to value "141.30.89.215"
Warning: Gurobi version mismatch between C++ 10.0.3 and C library 10.0.0
Set parameter Threads to value 8
Set parameter LazyConstraints to value 1
Set parameter PreCrush to value 1
Set parameter TimeLimit to value 28800
Set parameter SolutionLimit to value 10000
Gurobi Optimizer version 10.0.0 build v10.0.0rc2 (win64)

CPU model: AMD EPYC 7513 32-Core Processor, instruction set [SSE2|AVX|AVX2]
Thread count: 16 physical cores, 16 logical processors, using up to 8 threads

Optimize a model with 352 rows, 676 columns and 1950 nonzeros
Model fingerprint: 0x2532d697
Variable types: 0 continuous, 676 integer (676 binary)
Coefficient statistics:
  Matrix range     [1e+00, 1e+00]
  Objective range  [5e+00, 9e+01]
  Bounds range     [1e+00, 1e+00]
  RHS range        [1e+00, 8e+00]

User MIP start produced solution with objective 740.441 (0.00s)
Loaded user MIP start with objective 740.441

Presolve removed 43 rows and 107 columns
Presolve time: 0.00s
Presolved: 309 rows, 569 columns, 1629 nonzeros
Variable types: 0 continuous, 569 integer (569 binary)

Root relaxation: objective 4.668467e+02, 94 iterations, 0.00 seconds (0.00 work units)

    Nodes    |    Current Node    |     Objective Bounds      |     Work
 Expl Unexpl |  Obj  Depth IntInf | Incumbent    BestBd   Gap | It/Node Time

     0     0  466.84671    0    -  740.44125  466.84671  37.0%     -    0s
     0     0  492.83241    0   14  740.44125  492.83241  33.4%     -    0s
H    0     0                     709.7820471  544.85244  23.2%     -    0s
     0     0  544.85244    0   10  709.78205  544.85244  23.2%     -    0s
     0     0  571.22605    0   18  709.78205  571.22605  19.5%     -    0s
     0     0  579.32266    0   46  709.78205  579.32266  18.4%     -    0s
     0     0  588.68111    0   57  709.78205  588.68111  17.1%     -    0s
     0     0  595.42263    0   69  709.78205  595.42263  16.1%     -    0s
     0     0  597.93024    0   62  709.78205  597.93024  15.8%     -    0s
     0     0  601.12440    0   81  709.78205  601.12440  15.3%     -    0s
     0     0  601.81963    0   65  709.78205  601.81963  15.2%     -    0s
     0     0  602.40775    0   83  709.78205  602.40775  15.1%     -    0s
     0     0  602.56493    0   83  709.78205  602.56493  15.1%     -    0s
     0     0  602.64811    0   86  709.78205  602.64811  15.1%     -    0s
     0     0  602.82817    0   90  709.78205  602.82817  15.1%     -    0s
     0     0  602.85907    0   87  709.78205  602.85907  15.1%     -    0s
     0     0  602.93970    0   91  709.78205  602.93970  15.1%     -    0s
     0     0  602.93970    0   91  709.78205  602.93970  15.1%     -    0s
     0     0  602.93970    0   80  709.78205  602.93970  15.1%     -    1s
     0     2  602.93970    0   76  709.78205  602.93970  15.1%     -    1s
    93   108  607.98836    9   67  709.78205  605.89821  14.6%  40.2    5s
H  167   156                     684.6226570  605.89821  11.5%  34.5    7s
   701   630  632.11808   38   54  684.62266  605.89821  11.5%  24.3   10s
H 1458  1223                     672.6488606  607.59849  9.67%  18.3   11s
H 2282  1584                     666.8683753  608.46815  8.76%  20.7   14s
  2287  1621  658.40488   67   40  666.86838  608.46815  8.76%  20.7   15s
H 2594  1521                     656.1088582  608.80215  7.21%  20.1   15s
H 2891  1565                     650.0933984  608.80215  6.35%  20.5   16s
* 3151  1142              28     634.0001553  610.97197  3.63%  20.8   16s
H 4633  1173                     630.1275730  615.16866  2.37%  21.3   17s

Cutting planes:
  User: 776
  Gomory: 13
  Clique: 5
  MIR: 1
  Flow cover: 5
  Zero half: 32
  Lazy constraints: 263

Explored 10249 nodes (266310 simplex iterations) in 19.56 seconds (10.80 work units)
Thread count was 8 (of 16 available processors)

Solution count 9: 630.128 634 650.093 ... 740.441

Optimal solution found (tolerance 1.00e-04)
Best objective 6.301275729831e+02, best bound 6.301275729831e+02, gap 0.0000%

User-callback calls 21670, time in user-callback 12.47 sec
### START EXACT APPROACH ###
ProblemVariant: 3
### START PREPROCESSING ###
## Start infeasible path procedure ## 
Deleted arcs: 81
Infeasible tail paths: 0
Infeasible 2-node combinations: 39
## Start extended infeasible path procedure ##
Deleted arcs: 81
Infeasible tail paths: 0
Infeasible 2-node combinations: 39
## Start start solution procedure ##
Start solution with 8 Vehicles and total costs 740.441 in 9.32053 s.
### END PREPROCESSING ###
Route 0 0-3-0 : weight util 0.854167 | volume util 0.046200 | feasible with packing heuristic | feasible with CP model
Route 1 0-10-25-4-2-0 : weight util 0.979167 | volume util 0.547733 | feasible with packing heuristic | feasible with CP model
Route 2 0-12-11-8-9-0 : weight util 1.000000 | volume util 0.538333 | feasible with packing heuristic | feasible with CP model
Route 3 0-16-13-7-1-0 : weight util 1.000000 | volume util 0.578311 | feasible with packing heuristic | feasible with CP model
Route 4 0-17-5-14-0 : weight util 0.958333 | volume util 0.606222 | feasible with packing heuristic | feasible with CP model
Route 5 0-19-15-0 : weight util 0.937500 | volume util 0.334400 | feasible with packing heuristic | feasible with CP model
Route 6 0-22-18-24-0 : weight util 0.958333 | volume util 0.426689 | feasible with packing heuristic | feasible with CP model
Route 7 0-23-6-20-21-0 : weight util 0.958333 | volume util 0.536889 | feasible with packing heuristic | feasible with CP model
